10868
1 1 0 0 0 0 0 0 1 1 0 0 1 1 1 0 0 0 0 0 0 1 0 0 0 0 0 0 1 0 
0 0 0 0 0 0 0 0 1 1 1 1 1 1 28 28 28 28 21 21 21 28 21 21 21 21 21 8 8 8 8 8 0 9 9 9 9 9 9 28 9 12 12 12 12 12 12 1 14 14 14 14 14 0 14 13 13 13 13 13 13 13 13 13 13 13 13 13 13 13 
